benchmarks_CP/INST_36x36/30/inst36x36_30_97.dzn
S=6;
start=[|
-1,	-1,	-1,	32,	34,	24,	-1,	-1,	-1,	-1,	-1,	-1,	22,	-1,	-1,	-1,	-1,	-1,	-1,	-1,	-1,	-1,	-1,	-1,	5,	3,	-1,	-1,	-1,	-1,	-1,	-1,	-1,	-1,	-1,	-1|
-1,	-1,	19,	-1,	-1,	-1,	18,	10,	1,	-1,	-1,	4,	27,	-1,	-1,	-1,	-1,	-1,	-1,	-1,	-1,	-1,	-1,	13,	-1,	-1,	-1,	-1,	-1,	-1,	-1,	-1,	-1,	-1,	-1,	17|
-1,	-1,	-1,	13,	-1,	1,	-1,	-1,	-1,	-1,	-1,	28,	-1,	-1,	20,	-1,	-1,	24,	-1,	27,	-1,	-1,	-1,	-1,	-1,	-1,	32,	-1,	-1,	-1,	-1,	-1,	-1,	-1,	-1,	23|
-1,	27,	-1,	-1,	-1,	3,	23,	-1,	-1,	-1,	-1,	-1,	-1,	-1,	-1,	13,	-1,	-1,	7,	1,	33,	-1,	-1,	14,	-1,	26,	24,	34,	21,	-1,	-1,	28,	-1,	20,	-1,	-1|
-1,	-1,	-1,	-1,	-1,	29,	24,	-1,	3,	-1,	-1,	-1,	-1,	7,	-1,	-1,	-1,	-1,	-1,	-1,	5,	18,	19,	-1,	17,	13,	-1,	27,	-1,	-1,	-1,	-1,	-1,	-1,	31,	-1|
-1,	10,	-1,	16,	-1,	-1,	-1,	6,	31,	-1,	19,	-1,	-1,	34,	-1,	11,	-1,	-1,	-1,	-1,	29,	21,	22,	-1,	-1,	-1,	33,	-1,	-1,	-1,	-1,	-1,	-1,	-1,	-1,	-1|
-1,	12,	-1,	-1,	10,	-1,	-1,	-1,	2,	-1,	-1,	15,	30,	-1,	-1,	28,	-1,	31,	-1,	29,	-1,	-1,	-1,	-1,	-1,	-1,	-1,	-1,	-1,	-1,	-1,	9,	26,	-1,	4,	25|
-1,	5,	-1,	7,	-1,	-1,	-1,	-1,	32,	-1,	-1,	-1,	10,	12,	-1,	25,	-1,	-1,	-1,	-1,	-1,	30,	35,	-1,	-1,	-1,	-1,	-1,	-1,	-1,	13,	-1,	-1,	-1,	1,	-1|
-1,	-1,	1,	-1,	-1,	-1,	-1,	-1,	-1,	5,	12,	29,	-1,	-1,	4,	-1,	-1,	34,	-1,	-1,	-1,	33,	15,	20,	-1,	-1,	-1,	-1,	-1,	-1,	-1,	10,	-1,	-1,	23,	31|
-1,	-1,	-1,	-1,	-1,	-1,	-1,	-1,	-1,	-1,	-1,	-1,	-1,	21,	7,	-1,	-1,	-1,	31,	11,	-1,	-1,	-1,	16,	-1,	-1,	-1,	-1,	4,	-1,	-1,	22,	-1,	-1,	27,	-1|
16,	-1,	26,	-1,	-1,	18,	-1,	-1,	8,	-1,	-1,	23,	-1,	-1,	-1,	-1,	-1,	3,	-1,	-1,	-1,	22,	-1,	-1,	-1,	-1,	-1,	25,	-1,	-1,	-1,	-1,	-1,	-1,	24,	-1|
-1,	-1,	25,	-1,	-1,	23,	-1,	-1,	-1,	31,	13,	3,	32,	-1,	33,	-1,	1,	-1,	-1,	2,	-1,	9,	-1,	-1,	-1,	-1,	-1,	-1,	-1,	-1,	-1,	-1,	-1,	-1,	-1,	34|
-1,	30,	22,	-1,	-1,	-1,	-1,	19,	-1,	26,	-1,	-1,	-1,	-1,	-1,	-1,	12,	-1,	17,	-1,	-1,	-1,	-1,	-1,	-1,	-1,	29,	9,	-1,	-1,	34,	-1,	-1,	-1,	3,	-1|
-1,	-1,	-1,	28,	-1,	-1,	-1,	17,	-1,	-1,	-1,	-1,	9,	-1,	-1,	-1,	30,	-1,	36,	-1,	-1,	-1,	11,	7,	-1,	-1,	-1,	4,	18,	-1,	-1,	-1,	32,	29,	15,	-1|
-1,	26,	-1,	-1,	33,	-1,	-1,	-1,	-1,	-1,	23,	-1,	-1,	29,	3,	-1,	-1,	-1,	-1,	-1,	-1,	-1,	5,	-1,	-1,	-1,	-1,	-1,	-1,	15,	17,	-1,	-1,	-1,	-1,	24|
5,	-1,	-1,	-1,	-1,	-1,	-1,	8,	-1,	-1,	-1,	-1,	-1,	-1,	-1,	1,	-1,	-1,	-1,	-1,	-1,	-1,	-1,	21,	-1,	-1,	2,	-1,	-1,	-1,	-1,	-1,	14,	-1,	10,	-1|
-1,	-1,	-1,	-1,	35,	-1,	14,	29,	10,	-1,	-1,	-1,	-1,	-1,	-1,	34,	-1,	-1,	24,	-1,	-1,	-1,	-1,	-1,	-1,	27,	23,	3,	-1,	-1,	-1,	-1,	11,	-1,	-1,	-1|
-1,	-1,	-1,	-1,	-1,	-1,	-1,	3,	-1,	28,	-1,	-1,	-1,	17,	-1,	-1,	-1,	-1,	34,	-1,	-1,	-1,	-1,	-1,	7,	21,	-1,	12,	36,	-1,	-1,	-1,	31,	8,	30,	-1|
23,	28,	-1,	-1,	25,	-1,	-1,	-1,	-1,	9,	-1,	-1,	-1,	22,	-1,	-1,	-1,	-1,	-1,	31,	15,	-1,	-1,	-1,	-1,	-1,	-1,	-1,	-1,	-1,	19,	12,	-1,	-1,	11,	-1|
-1,	14,	-1,	-1,	30,	-1,	-1,	-1,	-1,	-1,	-1,	-1,	-1,	-1,	-1,	-1,	28,	-1,	-1,	-1,	-1,	-1,	-1,	4,	-1,	1,	25,	-1,	-1,	31,	-1,	-1,	21,	-1,	20,	-1|
31,	-1,	-1,	-1,	-1,	7,	-1,	28,	-1,	-1,	-1,	-1,	-1,	35,	-1,	21,	-1,	-1,	5,	22,	-1,	-1,	12,	-1,	20,	-1,	15,	18,	-1,	-1,	6,	-1,	-1,	23,	-1,	-1|
-1,	-1,	4,	18,	12,	13,	32,	15,	-1,	24,	-1,	-1,	-1,	26,	-1,	-1,	-1,	-1,	3,	-1,	-1,	29,	-1,	-1,	-1,	-1,	-1,	-1,	-1,	-1,	-1,	-1,	-1,	28,	33,	8|
-1,	-1,	-1,	9,	20,	-1,	4,	5,	11,	-1,	-1,	6,	-1,	16,	-1,	-1,	-1,	-1,	13,	-1,	1,	-1,	33,	-1,	28,	30,	10,	-1,	3,	-1,	-1,	-1,	-1,	-1,	-1,	-1|
-1,	-1,	-1,	6,	-1,	-1,	-1,	14,	-1,	-1,	3,	-1,	15,	-1,	-1,	-1,	17,	11,	-1,	-1,	-1,	35,	21,	8,	36,	7,	-1,	16,	-1,	-1,	5,	-1,	-1,	-1,	32,	-1|
27,	-1,	-1,	21,	4,	14,	-1,	18,	-1,	-1,	-1,	-1,	-1,	-1,	13,	-1,	-1,	1,	-1,	-1,	-1,	-1,	-1,	-1,	34,	-1,	28,	-1,	22,	-1,	-1,	6,	-1,	-1,	-1,	-1|
-1,	-1,	29,	11,	-1,	-1,	-1,	-1,	-1,	-1,	-1,	21,	-1,	-1,	-1,	20,	-1,	8,	-1,	-1,	-1,	-1,	-1,	-1,	-1,	-1,	-1,	26,	-1,	-1,	-1,	18,	-1,	-1,	14,	33|
-1,	-1,	8,	-1,	32,	-1,	-1,	-1,	-1,	-1,	-1,	26,	28,	-1,	24,	-1,	-1,	10,	14,	36,	-1,	6,	-1,	-1,	3,	-1,	-1,	-1,	-1,	-1,	20,	34,	-1,	-1,	-1,	-1|
-1,	19,	-1,	-1,	-1,	-1,	-1,	-1,	-1,	-1,	24,	-1,	-1,	18,	-1,	-1,	-1,	7,	-1,	-1,	-1,	-1,	-1,	25,	-1,	2,	-1,	14,	-1,	27,	4,	-1,	-1,	-1,	-1,	-1|
-1,	-1,	7,	-1,	28,	-1,	-1,	-1,	-1,	14,	-1,	-1,	-1,	-1,	11,	-1,	-1,	-1,	-1,	-1,	-1,	-1,	34,	-1,	-1,	24,	-1,	5,	-1,	-1,	-1,	-1,	-1,	10,	-1,	-1|
24,	-1,	-1,	-1,	16,	-1,	5,	34,	23,	-1,	-1,	-1,	-1,	-1,	-1,	-1,	19,	-1,	-1,	-1,	2,	-1,	-1,	1,	-1,	-1,	8,	-1,	-1,	-1,	28,	-1,	-1,	-1,	22,	-1|
-1,	20,	-1,	24,	7,	-1,	-1,	-1,	-1,	4,	-1,	-1,	34,	-1,	29,	-1,	-1,	-1,	-1,	-1,	-1,	-1,	-1,	-1,	-1,	16,	27,	-1,	-1,	-1,	-1,	-1,	-1,	-1,	-1,	32|
-1,	21,	-1,	-1,	1,	19,	7,	31,	-1,	-1,	32,	12,	-1,	-1,	9,	-1,	-1,	28,	15,	-1,	-1,	-1,	8,	-1,	-1,	5,	-1,	-1,	14,	-1,	-1,	33,	-1,	35,	29,	16|
-1,	-1,	34,	-1,	-1,	-1,	-1,	16,	20,	-1,	14,	-1,	-1,	-1,	-1,	-1,	-1,	-1,	1,	-1,	-1,	24,	-1,	29,	-1,	17,	18,	-1,	-1,	36,	-1,	2,	-1,	-1,	-1,	-1|
-1,	-1,	-1,	-1,	11,	28,	15,	-1,	-1,	-1,	33,	-1,	-1,	-1,	-1,	22,	20,	-1,	-1,	-1,	-1,	-1,	17,	-1,	-1,	31,	9,	-1,	-1,	24,	-1,	-1,	-1,	18,	-1,	6|
-1,	-1,	5,	22,	-1,	-1,	-1,	-1,	13,	-1,	1,	30,	26,	-1,	-1,	-1,	-1,	-1,	11,	-1,	-1,	14,	-1,	6,	-1,	25,	-1,	-1,	8,	28,	-1,	-1,	-1,	-1,	-1,	-1|
-1,	33,	15,	-1,	-1,	-1,	26,	-1,	-1,	18,	-1,	34,	35,	14,	-1,	24,	-1,	-1,	10,	-1,	-1,	16,	32,	31,	-1,	-1,	-1,	2,	-1,	-1,	-1,	11,	-1,	-1,	-1,	36|];
